c NeuroCodeBench 2.0 CNF formula with verdict Unsat
p cnf 7 22
1 -6 -5 -2 -7 0
-1 7 -6 5 0
1 -6 -5 2 4 -7 0
-1 -7 -5 3 -2 0
-1 -7 -5 -3 -6 4 0
1 -6 -5 2 -4 7 0
-1 -7 -5 -3 6 0
-1 7 -6 -5 0
-1 -7 5 -4 0
1 6 5 0
1 -6 -5 -2 7 0
1 6 -5 0
-1 7 6 0
-1 -7 5 4 0
1 -6 -5 2 4 7 -3 0
1 -6 -5 2 4 7 3 0
-1 -7 -5 3 2 -6 0
1 -6 5 -3 0
1 -6 5 3 0
1 -6 -5 2 -4 -7 0
-1 -7 -5 3 2 6 0
-1 -7 -5 -3 -6 -4 0
